Instance Name : r103
Date : 2022-07-24
Solution
Route 1 : 51 65 71 9 35 34 28
Route 2 : 50 33 81 78 3 77
Route 3 : 76 79 29 24 68 80 12
Route 4 : 26 39 23 67 55 4 25 54
Route 5 : 73 22 75 56 74 72 21
Route 6 : 40 53
Route 7 : 42 43 15 41 57 2 13 58
Route 8 : 94 96 99 6
Route 9 : 87 97 59 93 95
Route 10 : 92 98 14 44 38 86 16 61 85 91 100 37
Route 11 : 88 84 17 5 60 89
Route 12 : 83 45 46 8 82 18
Route 13 : 36 64 49 19 47 48 7 52
Route 14 : 62 11 63 90 10 31
Route 15 : 27 69 30 20 66 32 70 1
